NAME : amz0218.151931_145931.tour
COMMENT : Cost = 151931_145931
COMMENT : Found by LKH-AMZ [Keld Helsgaun] Sun May 11 14:27:18 2025
COMMENT : TW viol.: 0 #: 0
TYPE : TOUR
DIMENSION : 157
TOUR_SECTION
112
46
156
1
147
124
51
106
25
155
152
43
111
143
151
101
58
3
27
42
115
102
127
60
129
64
50
76
157
41
67
35
149
107
145
71
4
44
99
32
78
117
144
68
31
72
69
136
40
57
63
53
11
92
7
131
73
66
81
125
138
140
148
154
61
126
8
118
18
37
82
122
135
5
6
19
13
120
30
20
79
142
47
91
97
2
36
116
28
95
59
75
70
26
134
21
109
45
85
93
94
89
103
114
150
39
29
100
128
123
98
121
84
24
77
90
137
12
86
65
88
34
96
141
74
56
9
132
113
110
16
33
153
139
108
133
83
14
17
15
55
130
104
62
105
52
49
22
80
87
48
119
38
146
23
54
10
-1
EOF
